(set-info :smt-lib-version 2.6)
(set-logic AUFBVDTNIRA)
(set-info :source |
Generated by: Yannick Moy
Generated on: 2022-02-14
Generator: GNATprove
Application: GNAT light runtime library
Target solver: Alt-Ergo, CVC4, Z3
|)
(set-info :license "https://creativecommons.org/licenses/by/4.0/")
(set-info :category "industrial")
(set-info :status unsat)

;;; generated by SMT-LIB2 driver
;;; SMT-LIB2 driver: bit-vectors, common part
;;; SMT-LIB2: integer arithmetic
(declare-sort string 0)

(declare-datatypes ((tuple0 0))
  (((Tuple0))))

(declare-sort us_private 0)

;; private__bool_eq
(declare-fun private__bool_eq (us_private
  us_private) Bool)

(declare-const us_null_ext__ us_private)

(declare-sort us_type_of_heap 0)

(declare-datatypes ((us_type_of_heap__ref 0))
  (((us_type_of_heap__refqtmk (us_type_of_heap__content us_type_of_heap)))))

(declare-sort us_image 0)

(declare-datatypes ((int__ref 0))
  (((int__refqtmk (int__content Int)))))

(declare-datatypes ((bool__ref 0))
  (((bool__refqtmk (bool__content Bool)))))

(declare-datatypes ((us_fixed__ref 0))
  (((us_fixed__refqtmk (us_fixed__content Int)))))

(declare-datatypes ((real__ref 0))
  (((real__refqtmk (real__content Real)))))

(declare-datatypes ((us_private__ref 0))
  (((us_private__refqtmk (us_private__content us_private)))))

;; int__ref___projection
(define-fun int__ref___projection ((a int__ref)) Int
  (int__content a))

;; __fixed__ref___projection
(define-fun us_fixed__ref___projection ((a us_fixed__ref)) Int
  (us_fixed__content a))

;; bool__ref___projection
(define-fun bool__ref___projection ((a bool__ref)) Bool
  (bool__content a))

;; real__ref___projection
(define-fun real__ref___projection ((a real__ref)) Real
  (real__content a))

;; __private__ref___projection
(define-fun us_private__ref___projection ((a us_private__ref)) us_private
  (us_private__content a))

;; bool_eq
(define-fun bool_eq ((x Bool) (y Bool)) Bool
  (ite (= x y) true false))

;; to_int
(define-fun to_int1 ((b Bool)) Int
  (ite (= b true) 1 0))

;; of_int
(define-fun of_int ((i Int)) Bool
  (ite (= i 0) false true))

;; in_range
(define-fun in_range ((x Int)) Bool
  (or (= x 0) (= x 1)))

;; attr__ATTRIBUTE_IMAGE
(declare-fun attr__ATTRIBUTE_IMAGE (Bool) us_image)

;; attr__ATTRIBUTE_VALUE__pre_check
(declare-fun attr__ATTRIBUTE_VALUE__pre_check (us_image) Bool)

;; attr__ATTRIBUTE_VALUE
(declare-fun attr__ATTRIBUTE_VALUE (us_image) Bool)

(declare-sort integer 0)

;; integer'int
(declare-fun integerqtint (integer) Int)

;; integer'axiom
(assert
  (forall ((i integer))
    (and
      (<= (- 2147483648) (integerqtint i))
      (<= (integerqtint i) 2147483647))))

;; in_range
(define-fun in_range1 ((x Int)) Bool
  (and (<= (- 2147483648) x) (<= x 2147483647)))

;; bool_eq
(define-fun bool_eq1 ((x Int) (y Int)) Bool
  (ite (= x y) true false))

;; attr__ATTRIBUTE_IMAGE
(declare-fun attr__ATTRIBUTE_IMAGE1 (Int) us_image)

;; attr__ATTRIBUTE_VALUE__pre_check
(declare-fun attr__ATTRIBUTE_VALUE__pre_check1 (us_image) Bool)

;; attr__ATTRIBUTE_VALUE
(declare-fun attr__ATTRIBUTE_VALUE1 (us_image) Int)

;; user_eq
(declare-fun user_eq (integer
  integer) Bool)

(declare-const dummy integer)

(declare-datatypes ((integer__ref 0))
  (((integer__refqtmk (integer__content integer)))))

;; integer__ref_integer__content__projection
(define-fun integer__ref_integer__content__projection ((a integer__ref)) integer
  (integer__content a))

(declare-sort character 0)

;; in_range
(define-fun in_range2 ((x Int)) Bool
  (and (<= 0 x) (<= x 255)))

;; bool_eq
(define-fun bool_eq2 ((x Int) (y Int)) Bool
  (ite (= x y) true false))

;; attr__ATTRIBUTE_IMAGE
(declare-fun attr__ATTRIBUTE_IMAGE2 (Int) us_image)

;; attr__ATTRIBUTE_VALUE__pre_check
(declare-fun attr__ATTRIBUTE_VALUE__pre_check2 (us_image) Bool)

;; attr__ATTRIBUTE_VALUE
(declare-fun attr__ATTRIBUTE_VALUE2 (us_image) Int)

;; user_eq
(declare-fun user_eq1 (character
  character) Bool)

(declare-const dummy1 character)

(declare-datatypes ((character__ref 0))
  (((character__refqtmk (character__content character)))))

;; character__ref_character__content__projection
(define-fun character__ref_character__content__projection ((a character__ref)) character
  (character__content a))

;; to_rep
(declare-fun to_rep (character) Int)

;; of_rep
(declare-fun of_rep (Int) character)

;; inversion_axiom
(assert
  (forall ((x character))
    (! (= (of_rep (to_rep x)) x) :pattern ((to_rep x)) )))

;; range_axiom
(assert
  (forall ((x character)) (! (in_range2 (to_rep x)) :pattern ((to_rep x)) )))

;; coerce_axiom
(assert
  (forall ((x Int))
    (! (=> (in_range2 x) (= (to_rep (of_rep x)) x)) :pattern ((to_rep
                                                                (of_rep x))) )))

(declare-datatypes ((map__ref 0))
  (((map__refqtmk (map__content (Array Int character))))))

;; slide
(declare-fun slide ((Array Int character)
  Int
  Int) (Array Int character))

;; slide_eq
(assert
  (forall ((a (Array Int character)))
    (forall ((first Int))
      (! (= (slide a first first) a) :pattern ((slide a first first)) ))))

;; slide_def
(assert
  (forall ((a (Array Int character)))
    (forall ((old_first Int))
      (forall ((new_first Int))
        (forall ((i Int))
          (! (= (select (slide a old_first new_first) i) (select a (- i (- new_first old_first)))) :pattern ((select 
          (slide
            a
            old_first
            new_first) i)) ))))))

;; const
(declare-fun const1 (character) (Array Int character))

;; const_def
(assert
  (forall ((v character))
    (forall ((i Int))
      (! (= (select (const1 v) i) v) :pattern ((select (const1 v) i)) ))))

;; bool_eq
(define-fun bool_eq3 ((a (Array Int character)) (a__first Int) (a__last Int) (b (Array Int character)) (b__first Int) (b__last Int)) Bool
  (ite (and
         (ite (<= a__first a__last)
           (and
             (<= b__first b__last)
             (= (- a__last a__first) (- b__last b__first)))
           (< b__last b__first))
         (forall ((temp___idx_105 Int))
           (=>
             (and (<= a__first temp___idx_105) (<= temp___idx_105 a__last))
             (= (to_rep (select a temp___idx_105)) (to_rep
                                                     (select b (+ (- b__first a__first) temp___idx_105)))))))
    true
    false))

;; bool_eq_rev
(assert
  (forall ((a (Array Int character)) (b (Array Int character)))
    (forall ((a__first Int) (a__last Int) (b__first Int) (b__last Int))
      (=>
        (= (bool_eq3 b b__first b__last a a__first a__last) true)
        (and
          (ite (<= a__first a__last)
            (and
              (<= b__first b__last)
              (= (- a__last a__first) (- b__last b__first)))
            (< b__last b__first))
          (forall ((temp___idx_105 Int))
            (=>
              (and (<= a__first temp___idx_105) (<= temp___idx_105 a__last))
              (= (to_rep (select a temp___idx_105)) (to_rep
                                                      (select b (+ (- b__first a__first) temp___idx_105)))))))))))

(declare-sort positive 0)

;; positive'int
(declare-fun positiveqtint (positive) Int)

;; positive'axiom
(assert
  (forall ((i positive))
    (and (<= 1 (positiveqtint i)) (<= (positiveqtint i) 2147483647))))

;; in_range
(define-fun in_range3 ((x Int)) Bool
  (and (<= 1 x) (<= x 2147483647)))

;; bool_eq
(define-fun bool_eq4 ((x Int) (y Int)) Bool
  (ite (= x y) true false))

;; attr__ATTRIBUTE_IMAGE
(declare-fun attr__ATTRIBUTE_IMAGE3 (Int) us_image)

;; attr__ATTRIBUTE_VALUE__pre_check
(declare-fun attr__ATTRIBUTE_VALUE__pre_check3 (us_image) Bool)

;; attr__ATTRIBUTE_VALUE
(declare-fun attr__ATTRIBUTE_VALUE3 (us_image) Int)

;; user_eq
(declare-fun user_eq2 (positive
  positive) Bool)

(declare-const dummy2 positive)

(declare-datatypes ((positive__ref 0))
  (((positive__refqtmk (positive__content positive)))))

;; positive__ref_positive__content__projection
(define-fun positive__ref_positive__content__projection ((a positive__ref)) positive
  (positive__content a))

;; to_rep
(define-fun to_rep1 ((x integer)) Int
  (integerqtint x))

;; of_rep
(declare-fun of_rep1 (Int) integer)

;; inversion_axiom
(assert
  (forall ((x integer))
    (! (= (of_rep1 (to_rep1 x)) x) :pattern ((to_rep1 x)) )))

;; range_axiom
(assert
  (forall ((x integer)) (! (in_range1 (to_rep1 x)) :pattern ((to_rep1 x)) )))

;; coerce_axiom
(assert
  (forall ((x Int))
    (! (=> (in_range1 x) (= (to_rep1 (of_rep1 x)) x)) :pattern ((to_rep1
                                                                  (of_rep1 x))) )))

(declare-datatypes ((t 0))
  (((tqtmk (rec__first integer)(rec__last integer)))))

;; mk
(declare-fun mk (Int
  Int) t)

;; mk_def
(assert
  (forall ((f Int) (l Int))
    (! (=>
         (in_range1 f)
         (=>
           (in_range1 l)
           (and
             (= (to_rep1 (rec__first (mk f l))) f)
             (= (to_rep1 (rec__last (mk f l))) l)))) :pattern ((mk f l)) )))

;; dynamic_property
(define-fun dynamic_property ((range_first Int) (range_last Int) (low Int) (high Int)) Bool
  (and
    (in_range1 low)
    (and
      (in_range1 high)
      (=> (<= low high) (and (in_range3 low) (in_range3 high))))))

(declare-datatypes ((us_t 0))
  (((us_tqtmk (elts (Array Int character))(rt t)))))

;; to_array
(define-fun to_array ((a us_t)) (Array Int character)
  (elts a))

;; of_array
(define-fun of_array ((a (Array Int character)) (f Int) (l Int)) us_t
  (us_tqtmk a (mk f l)))

;; first
(define-fun first ((a us_t)) Int
  (to_rep1 (rec__first (rt a))))

;; last
(define-fun last ((a us_t)) Int
  (to_rep1 (rec__last (rt a))))

;; length
(define-fun length ((a us_t)) Int
  (ite (<= (first a) (last a)) (+ (- (last a) (first a)) 1) 0))

(declare-const value__size Int)

(declare-const object__size Int)

(declare-const component__size Int)

(declare-const alignment Int)

;; value__size_axiom
(assert (<= 0 value__size))

;; object__size_axiom
(assert (<= 0 object__size))

;; component__size_axiom
(assert (<= 0 component__size))

;; alignment_axiom
(assert (<= 0 alignment))

;; bool_eq
(define-fun bool_eq5 ((x us_t) (y us_t)) Bool
  (bool_eq3
    (elts x)
    (to_rep1 (rec__first (rt x)))
    (to_rep1 (rec__last (rt x)))
    (elts y)
    (to_rep1 (rec__first (rt y)))
    (to_rep1 (rec__last (rt y)))))

;; user_eq
(declare-fun user_eq3 (us_t
  us_t) Bool)

(declare-const dummy3 us_t)

(declare-datatypes ((string____ref 0))
  (((string____refqtmk (string____content us_t)))))

;; string____ref_string____content__projection
(define-fun string____ref_string____content__projection ((a string____ref)) us_t
  (string____content a))

;; dynamic_invariant
(define-fun dynamic_invariant ((temp___expr_110 us_t) (temp___is_init_106 Bool) (temp___skip_constant_107 Bool) (temp___do_toplevel_108 Bool) (temp___do_typ_inv_109 Bool)) Bool
  (=>
    (not (= temp___skip_constant_107 true))
    (dynamic_property
      1
      2147483647
      (first temp___expr_110)
      (last temp___expr_110))))

;; only_space_ghost
(declare-fun only_space_ghost (us_t
  Int
  Int) Bool)

;; only_space_ghost__function_guard
(declare-fun only_space_ghost__function_guard (Bool
  us_t
  Int
  Int) Bool)

;; dynamic_invariant
(define-fun dynamic_invariant1 ((temp___expr_18 Int) (temp___is_init_14 Bool) (temp___skip_constant_15 Bool) (temp___do_toplevel_16 Bool) (temp___do_typ_inv_17 Bool)) Bool
  (=>
    (or (= temp___is_init_14 true) (<= (- 2147483648) 2147483647))
    (in_range1 temp___expr_18)))

;; only_space_ghost__post_axiom
(assert true)

;; only_space_ghost__def_axiom
(assert
  (forall ((s us_t))
    (forall ((from Int) (to__ Int))
      (! (=
           (= (only_space_ghost s from to__) true)
           (forall ((j Int))
             (=>
               (and (<= from j) (<= j to__))
               (= (to_rep (select (to_array s) j)) 32)))) :pattern ((only_space_ghost
                                                                    s
                                                                    from
                                                                    to__)) ))))

(declare-const str us_t)

(declare-datatypes ((tresS__ref 0))
  (((tresS__refqtmk (tresS__content us_t)))))

;; tresS__ref_tresS__content__projection
(define-fun tresS__ref_tresS__content__projection ((a tresS__ref)) us_t
  (tresS__content a))

;; dynamic_invariant
(define-fun dynamic_invariant2 ((temp___expr_53 Int) (temp___is_init_49 Bool) (temp___skip_constant_50 Bool) (temp___do_toplevel_51 Bool) (temp___do_typ_inv_52 Bool)) Bool
  (=>
    (or (= temp___is_init_49 true) (<= 1 2147483647))
    (in_range3 temp___expr_53)))

;; dynamic_invariant
(define-fun dynamic_invariant3 ((temp___expr_88 Int) (temp___is_init_84 Bool) (temp___skip_constant_85 Bool) (temp___do_toplevel_86 Bool) (temp___do_typ_inv_87 Bool)) Bool
  (=> (or (= temp___is_init_84 true) (<= 0 255)) (in_range2 temp___expr_88)))

;; dynamic_invariant
(define-fun dynamic_invariant4 ((temp___expr_612 us_t) (temp___is_init_608 Bool) (temp___skip_constant_609 Bool) (temp___do_toplevel_610 Bool) (temp___do_typ_inv_611 Bool)) Bool
  (=>
    (not (= temp___skip_constant_609 true))
    (and
      (and
        (dynamic_property
          1
          (length str)
          (first temp___expr_612)
          (last temp___expr_612))
        (= (first temp___expr_612) 1))
      (= (last temp___expr_612) (length str)))))

;; default_initial_assumption
(define-fun default_initial_assumption ((temp___expr_614 us_t) (temp___skip_top_level_615 Bool)) Bool
  (and (= (first temp___expr_614) 1) (= (last temp___expr_614) (length str))))

;; Assume
(assert (dynamic_invariant str true false true true))

;; Assert
(assert
  (ite (<= (first str) (last str))
    (and
      (<= 1 (length str))
      (= (- (last str) (first str)) (- (length str) 1)))
    (< (length str) 1)))

(declare-const ada___system__val_llli__impl__slide_to_1__result us_t)

;; H
(assert
  (= ada___system__val_llli__impl__slide_to_1__result (of_array
                                                        (to_array
                                                          (of_array
                                                            (slide
                                                              (to_array str)
                                                              (first str)
                                                              1)
                                                            1
                                                            (length str)))
                                                        (first
                                                          (of_array
                                                            (slide
                                                              (to_array str)
                                                              (first str)
                                                              1)
                                                            1
                                                            (length str)))
                                                        (last
                                                          (of_array
                                                            (slide
                                                              (to_array str)
                                                              (first str)
                                                              1)
                                                            1
                                                            (length str))))))

;; Goal def'vc
;; File "s-valuei.ads", line 179, characters 0-0
(assert
  (not
  (=>
    (forall ((j Int))
      (=>
        (and (<= (first str) j) (<= j (last str)))
        (= (to_rep
             (select (to_array
                       ada___system__val_llli__impl__slide_to_1__result) (+ (- j 
             (first
               str)) 1))) 32)))
    (=>
      (only_space_ghost__function_guard
        (only_space_ghost str (first str) (last str))
        str
        (first str)
        (last str))
      (= (only_space_ghost str (first str) (last str)) true)))))

(check-sat)
(exit)
